
Gurobi 11.0.3 (linux64) logging started Sat Nov 23 05:41:24 2024

Set parameter LogFile to value "/home/yihong/Coding/OR_SUC/SUC_results_bigM100000_thread4/case24_ieee_rts_theta0.5_epsilon0.05_gurobi_seed50000_num_gen100_N_WDR50_load_scaling_factor1_exact_T24quadra_cost.txt"
Set parameter TimeLimit to value 3600
Gurobi Optimizer version 11.0.3 build v11.0.3rc0 (linux64 - "Ubuntu 20.04.6 LTS")

CPU model: AMD EPYC 7532 32-Core Processor, instruction set [SSE2|AVX|AVX2]
Thread count: 64 physical cores, 128 logical processors, using up to 4 threads

Optimize a model with 51943 rows, 29861 columns and 712638 nonzeros
Model fingerprint: 0xb92726e5
Model has 2400 quadratic constraints
Variable types: 27411 continuous, 2450 integer (2450 binary)
Coefficient statistics:
  Matrix range     [3e-04, 1e+05]
  QMatrix range    [2e-03, 8e-03]
  QLMatrix range   [2e-01, 6e+01]
  Objective range  [1e+00, 1e+00]
  Bounds range     [1e+00, 1e+00]
  RHS range        [1e+00, 1e+05]
Presolve removed 42044 rows and 12898 columns
Presolve time: 0.25s
Presolved: 9899 rows, 16963 columns, 62284 nonzeros
Presolved model has 2400 quadratic constraint(s)
Variable types: 14520 continuous, 2443 integer (2443 binary)

Root relaxation: objective 4.560779e+04, 7905 iterations, 0.21 seconds (0.30 work units)

    Nodes    |    Current Node    |     Objective Bounds      |     Work
 Expl Unexpl |  Obj  Depth IntInf | Incumbent    BestBd   Gap | It/Node Time

     0     0 45607.7948    0   27          - 45607.7948      -     -    0s
     0     0 327562.486    0  735          - 327562.486      -     -    1s
     0     0 365558.397    0  697          - 365558.397      -     -    1s
     0     0 641655.772    0  655          - 641655.772      -     -    1s
     0     0 641754.887    0  487          - 641754.887      -     -    1s
     0     0 642151.726    0  384          - 642151.726      -     -    1s
     0     0 642211.859    0  384          - 642211.859      -     -    1s
     0     0 642339.464    0  385          - 642339.464      -     -    1s
     0     0 642340.565    0  385          - 642340.565      -     -    1s
     0     2 642364.971    0  385          - 642364.971      -     -    2s
H  520   351                    642921.24573 642523.105  0.06%  27.4    4s
*  520   351             185    642921.24573 642523.105  0.06%  27.5    4s

Cutting planes:
  Gomory: 6
  Implied bound: 377
  MIR: 132
  Flow cover: 76
  PSD: 3

Explored 622 nodes (37874 simplex iterations) in 5.53 seconds (6.68 work units)
Thread count was 4 (of 128 available processors)

Solution count 2: 642921 642921 

Optimal solution found (tolerance 1.00e-03)
Warning: max constraint violation (4.9850e-07) exceeds tolerance
Best objective 6.429212457303e+05, best bound 6.425231048908e+05, gap 0.0619%
